
1.00000000
                       1.59609453       2.76451683       0.00000000
                      -1.59609453       2.76451683       0.00000000
                      -0.64258351       1.90284925      15.05205871
Mg 
6 
Direct
               0.6297661    0.5257733    0.2583045 Mg
               0.5805652    0.3379155    0.6027105 Mg
               0.5313643    0.1500577    0.9471166 Mg
               0.3210331    0.2863689    0.0861015 Mg
               0.2718322    0.0985110    0.4305076 Mg
               0.2226314    0.9106532    0.7749135 Mg

