
1.00000000
                       1.59609453       2.76451683       0.00000000
                      -1.59609453       2.76451683       0.00000000
                      -0.12437100       1.79514080      15.45205871
Mg 
6 
Direct
               0.5947759    0.5751693    0.2516179 Mg
               0.4989214    0.4531727    0.5871084 Mg
               0.4030670    0.3311761    0.9225990 Mg
               0.3093697    0.3028342    0.0838726 Mg
               0.2135152    0.1808376    0.4193632 Mg
               0.1176608    0.0588410    0.7548537 Mg

