
1.00000000
                       1.59609453       2.76451683       0.00000000
                      -1.59609453       2.76451683       0.00000000
                      -0.43529851       0.75395914      15.05205871
Mg 
6 
Direct
               0.6666667    0.5962200    0.2583045 Mg
               0.6666667    0.5022911    0.6027105 Mg
               0.6666667    0.4083622    0.9471166 Mg
               0.3333333    0.3098511    0.0861015 Mg
               0.3333333    0.2159221    0.4305076 Mg
               0.3333333    0.1219932    0.7749135 Mg

