
1.00000000
                       1.59609453       2.76451683       0.00000000
                      -1.59609453       2.76451683       0.00000000
                      -0.02072850       3.98521257      15.25205871
Mg 
6 
Direct
               0.4845829    0.4812722    0.2549174 Mg
               0.2418044    0.2340797    0.5948072 Mg
               0.9990259    0.9868870    0.9346971 Mg
               0.2726387    0.2715352    0.0849724 Mg
               0.0298602    0.0243425    0.4248623 Mg
               0.7870818    0.7771499    0.7647521 Mg

