
1.00000000
                       1.59609453       2.76451683       0.00000000
                      -1.59609453       2.76451683       0.00000000
                      -0.76695451       3.69799005      15.45205871
Mg 
6 
Direct
               0.5588305    0.4379231    0.2516179 Mg
               0.4150488    0.1329318    0.5871084 Mg
               0.2712671    0.8279403    0.9225990 Mg
               0.2973879    0.2570855    0.0838726 Mg
               0.1536062    0.9520940    0.4193632 Mg
               0.0098246    0.6471026    0.7548537 Mg

