
1.00000000
                       1.59609453       2.76451683       0.00000000
                      -1.59609453       2.76451683       0.00000000
                       1.36808103       2.36958585      17.05205871
Mg 
6 
Direct
               0.4712308    0.6666667    0.2280085 Mg
               0.2106497    0.6666667    0.5320199 Mg
               0.9500685    0.6666667    0.8360313 Mg
               0.2681880    0.3333333    0.0760028 Mg
               0.0076068    0.3333333    0.3800142 Mg
               0.7470257    0.3333333    0.6840256 Mg

