
1.00000000
                       3.19219000       0.00000000       0.00000000
                       1.59609500       2.76451763       0.00000000
                       1.06406333       0.00000000      15.63847332
Mg 
6 
Direct
               0.5833334    0.6666667    0.2500000 Mg
               0.4722223    0.6666667    0.5833333 Mg
               0.3611111    0.6666667    0.9166667 Mg
               0.3055555    0.3333333    0.0833333 Mg
               0.1944444    0.3333333    0.4166667 Mg
               0.0833333    0.3333333    0.7500000 Mg

