name
1
3 0 0
0 3 0
0 0 3
Ni
4
D
0.0 0.0 0.0 Va Ni
0.5 0.5 0.0 Va Ni
0.5 0.0 0.5 Va Ni
0.0 0.5 0.5 Va Ni
