name
1.00000000
                       3.00000000       0.00000000       0.00000000
                       0.00000000       3.00000000       0.00000000
                       0.00000000       0.00000000       3.00000000
Ni 
4 
Direct
               0.0000000    0.0000000    0.0000000 Ni
               0.5000000    0.5000000    0.0000000 Ni
               0.5000000    0.0000000    0.5000000 Ni
               0.0000000    0.5000000    0.5000000 Ni

