
1.00000000
                       1.59609453       2.76451683       0.00000000
                      -1.59609453       2.76451683       0.00000000
                      -0.70476901       2.80041965      16.25205871
Mg 
6 
Direct
               0.5983147    0.4926797    0.2392321 Mg
               0.5071786    0.2606970    0.5582083 Mg
               0.4160426    0.0287143    0.8771845 Mg
               0.3105493    0.2753377    0.0797440 Mg
               0.2194132    0.0433549    0.3987203 Mg
               0.1282772    0.8113723    0.7176964 Mg

