
1.00000000
                       1.59609453       2.76451683       0.00000000
                      -1.59609453       2.76451683       0.00000000
                      -0.76695451       3.69799005      15.05205871
Mg 
6 
Direct
               0.5559648    0.4318444    0.2583045 Mg
               0.4083622    0.1187481    0.6027105 Mg
               0.2607596    0.8056516    0.9471166 Mg
               0.2964327    0.2550592    0.0861015 Mg
               0.1488301    0.9419628    0.4305076 Mg
               0.0012275    0.6288664    0.7749135 Mg

