
1.00000000
                       1.59609453       2.76451683       0.00000000
                      -1.59609453       2.76451683       0.00000000
                       0.41457001       3.23125344      15.25205871
Mg 
6 
Direct
               0.4845829    0.5507952    0.2549174 Mg
               0.2418044    0.3962998    0.5948072 Mg
               0.9990259    0.2418044    0.9346971 Mg
               0.2726387    0.2947095    0.0849724 Mg
               0.0298602    0.1402141    0.4248623 Mg
               0.7870818    0.9857187    0.7647521 Mg

