
1.00000000
                       1.59609453       2.76451683       0.00000000
                      -1.59609453       2.76451683       0.00000000
                       0.99496802       2.22597459      15.45205871
Mg 
6 
Direct
               0.4869396    0.6437923    0.2516179 Mg
               0.2473035    0.6132932    0.5871084 Mg
               0.0076674    0.5827941    0.9225990 Mg
               0.2734243    0.3257085    0.0838726 Mg
               0.0337881    0.2952094    0.4193632 Mg
               0.7941521    0.2647102    0.7548537 Mg

