
1.00000000
                       1.59609453       2.76451683       0.00000000
                      -1.59609453       2.76451683       0.00000000
                       0.99496802       2.22597459      15.05205871
Mg 
6 
Direct
               0.4821635    0.6431845    0.2583045 Mg
               0.2361592    0.6118748    0.6027105 Mg
               0.9901549    0.5805652    0.9471166 Mg
               0.2718323    0.3255059    0.0861015 Mg
               0.0258279    0.2941962    0.4305076 Mg
               0.7798236    0.2628866    0.7749135 Mg

