
1.00000000
                       1.59609453       2.76451683       0.00000000
                      -1.59609453       2.76451683       0.00000000
                      -0.41457001       2.29778022      15.25205871
Mg 
6 
Direct
               0.5938332    0.5276209    0.2549174 Mg
               0.4967218    0.3422264    0.5948072 Mg
               0.3996104    0.1568319    0.9346971 Mg
               0.3090555    0.2869847    0.0849724 Mg
               0.2119441    0.1015902    0.4248623 Mg
               0.1148327    0.9161958    0.7647521 Mg

