
1.00000000
                       1.59609453       2.76451683       0.00000000
                      -1.59609453       2.76451683       0.00000000
                      -0.12437100       1.79514080      15.65205871
Mg 
6 
Direct
               0.5956945    0.5763384    0.2484028 Mg
               0.5010649    0.4559007    0.5796064 Mg
               0.4064352    0.3354630    0.9108102 Mg
               0.3096759    0.3032239    0.0828009 Mg
               0.2150463    0.1827862    0.4140046 Mg
               0.1204166    0.0623485    0.7452083 Mg

