
1.00000000
                       1.59609453       2.76451683       0.00000000
                      -1.59609453       2.76451683       0.00000000
                       0.39384151       1.68743235      15.55205871
Mg 
6 
Direct
               0.5595238    0.6212122    0.2500000 Mg
               0.4166667    0.5606061    0.5833333 Mg
               0.2738095    0.5000000    0.9166667 Mg
               0.2976190    0.3181818    0.0833333 Mg
               0.1547619    0.2575757    0.4166667 Mg
               0.0119047    0.1969697    0.7500000 Mg

