
1.00000000
                       1.59609453       2.76451683       0.00000000
                      -1.59609453       2.76451683       0.00000000
                       0.02072850       1.54382109      15.25205871
Mg 
6 
Direct
               0.5938332    0.5971438    0.2549174 Mg
               0.4967218    0.5044466    0.5948072 Mg
               0.3996104    0.4117493    0.9346971 Mg
               0.3090555    0.3101590    0.0849724 Mg
               0.2119441    0.2174618    0.4248623 Mg
               0.1148327    0.1247645    0.7647521 Mg

