
1.00000000
                       1.59609453       2.76451683       0.00000000
                      -1.59609453       2.76451683       0.00000000
                       0.93278252       3.12354499      15.05205871
Mg 
6 
Direct
               0.4452628    0.5962200    0.2583045 Mg
               0.1500577    0.5022911    0.6027105 Mg
               0.8548525    0.4083622    0.9471166 Mg
               0.2595320    0.3098511    0.0861015 Mg
               0.9643268    0.2159221    0.4305076 Mg
               0.6691217    0.1219932    0.7749135 Mg

