
1.00000000
                       1.59609453       2.76451683       0.00000000
                      -1.59609453       2.76451683       0.00000000
                       0.64258351       3.62618441      15.05205871
Mg 
6 
Direct
               0.4452628    0.5492556    0.2583045 Mg
               0.1500577    0.3927074    0.6027105 Mg
               0.8548525    0.2361592    0.9471166 Mg
               0.2595320    0.2941963    0.0861015 Mg
               0.9643268    0.1376480    0.4305076 Mg
               0.6691217    0.9810999    0.7749135 Mg

