
1.00000000
                       1.59609453       2.76451683       0.00000000
                      -1.59609453       2.76451683       0.00000000
                       0.41457001       3.23125344      15.45205871
Mg 
6 
Direct
               0.4869396    0.5522949    0.2516179 Mg
               0.2473035    0.3997992    0.5871084 Mg
               0.0076674    0.2473035    0.9225990 Mg
               0.2734243    0.2952094    0.0838726 Mg
               0.0337881    0.1427137    0.4193632 Mg
               0.7941521    0.9902180    0.7548537 Mg

