
1.00000000
                       1.59609453       2.76451683       0.00000000
                      -1.59609453       2.76451683       0.00000000
                       0.02072850       1.54382109      15.85205871
Mg 
6 
Direct
               0.5965899    0.5997752    0.2452688 Mg
               0.5031542    0.5105866    0.5722937 Mg
               0.4097185    0.4213979    0.8993188 Mg
               0.3099744    0.3110361    0.0817562 Mg
               0.2165386    0.2218475    0.4087813 Mg
               0.1231029    0.1326589    0.7358063 Mg

