
1.00000000
                       1.59609453       2.76451683       0.00000000
                      -1.59609453       2.76451683       0.00000000
                       0.22801350       0.39493098      15.85205871
Mg 
6 
Direct
               0.6316283    0.6666667    0.2452688 Mg
               0.5849105    0.6666667    0.5722937 Mg
               0.5381926    0.6666667    0.8993188 Mg
               0.3216538    0.3333333    0.0817562 Mg
               0.2749360    0.3333333    0.4087813 Mg
               0.2282181    0.3333333    0.7358063 Mg

