
1.00000000
                       1.59609453       2.76451683       0.00000000
                      -1.59609453       2.76451683       0.00000000
                      -0.64258351       1.90284925      15.45205871
Mg 
6 
Direct
               0.6307213    0.5294206    0.2516179 Mg
               0.5827941    0.3464257    0.5871084 Mg
               0.5348668    0.1634309    0.9225990 Mg
               0.3213515    0.2875846    0.0838726 Mg
               0.2734243    0.1045897    0.4193632 Mg
               0.2254971    0.9215949    0.7548537 Mg

