
1.00000000
                       1.59609453       2.76451683       0.00000000
                      -1.59609453       2.76451683       0.00000000
                      -0.58039801       1.00527885      17.55205871
Mg 
6 
Direct
               0.6666667    0.5861164    0.2215133 Mg
               0.6666667    0.4787160    0.5168644 Mg
               0.6666667    0.3713156    0.8122155 Mg
               0.3333333    0.3064832    0.0738377 Mg
               0.3333333    0.1990828    0.3691889 Mg
               0.3333333    0.0916824    0.6645399 Mg

