
1.00000000
                       1.59609453       2.76451683       0.00000000
                      -1.59609453       2.76451683       0.00000000
                       0.39384151       1.68743235      15.05205871
Mg 
6 
Direct
               0.5559648    0.6197022    0.2583045 Mg
               0.4083622    0.5570830    0.6027105 Mg
               0.2607596    0.4944637    0.9471166 Mg
               0.2964327    0.3176785    0.0861015 Mg
               0.1488301    0.2550592    0.4305076 Mg
               0.0012275    0.1924399    0.7749135 Mg

