
1.00000000
                       1.59609453       2.76451683       0.00000000
                      -1.59609453       2.76451683       0.00000000
                       0.26947051       3.48257315      15.25205871
Mg 
6 
Direct
               0.4845829    0.5276209    0.2549174 Mg
               0.2418044    0.3422264    0.5948072 Mg
               0.9990259    0.1568319    0.9346971 Mg
               0.2726387    0.2869847    0.0849724 Mg
               0.0298602    0.1015902    0.4248623 Mg
               0.7870818    0.9161958    0.7647521 Mg

