
1.00000000
                       1.59609453       2.76451683       0.00000000
                      -1.59609453       2.76451683       0.00000000
                      -0.41457001       2.29778022      15.65205871
Mg 
6 
Direct
               0.5956945    0.5311743    0.2484028 Mg
               0.5010649    0.3505177    0.5796064 Mg
               0.4064352    0.1698611    0.9108102 Mg
               0.3096759    0.2881692    0.0828009 Mg
               0.2150463    0.1075126    0.4140046 Mg
               0.1204166    0.9268560    0.7452083 Mg

