
1.00000000
                       1.59609453       2.76451683       0.00000000
                      -1.59609453       2.76451683       0.00000000
                      -1.30589552       2.26187741      17.55205871
Mg 
6 
Direct
               0.6666667    0.4854285    0.2215133 Mg
               0.6666667    0.2437777    0.5168644 Mg
               0.6666667    0.0021267    0.8122155 Mg
               0.3333333    0.2729206    0.0738377 Mg
               0.3333333    0.0312697    0.3691889 Mg
               0.3333333    0.7896188    0.6645399 Mg

