
1.00000000
                       3.19219000       0.00000000       0.00000000
                       1.59609500       2.76451763       0.00000000
                       3.45820583       2.30376469      15.63847332
Mg 
6 
Direct
               0.5000000    0.4583334    0.2500000 Mg
               0.2777778    0.1805556    0.5833333 Mg
               0.0555556    0.9027778    0.9166667 Mg
               0.2777778    0.2638889    0.0833333 Mg
               0.0555555    0.9861110    0.4166667 Mg
               0.8333333    0.7083333    0.7500000 Mg

