
1.00000000
                       1.59609453       2.76451683       0.00000000
                      -1.59609453       2.76451683       0.00000000
                      -0.08291400       4.88278297      15.45205871
Mg 
6 
Direct
               0.4509942    0.4379231    0.2516179 Mg
               0.1634309    0.1329318    0.5871084 Mg
               0.8758675    0.8279403    0.9225990 Mg
               0.2614425    0.2570855    0.0838726 Mg
               0.9738791    0.9520940    0.4193632 Mg
               0.6863158    0.6471026    0.7548537 Mg

