
1.00000000
                       1.59609453       2.76451683       0.00000000
                      -1.59609453       2.76451683       0.00000000
                      -0.10364250       3.33896189      15.45205871
Mg 
6 
Direct
               0.5228850    0.5065462    0.2516179 Mg
               0.3311762    0.2930523    0.5871084 Mg
               0.1394673    0.0795582    0.9225990 Mg
               0.2854061    0.2799598    0.0838726 Mg
               0.0936972    0.0664658    0.4193632 Mg
               0.9019883    0.8529718    0.7548537 Mg

