
1.00000000
                       1.59609453       2.76451683       0.00000000
                      -1.59609453       2.76451683       0.00000000
                      -0.16582800       4.23653228      15.25205871
Mg 
6 
Direct
               0.4845829    0.4580979    0.2549174 Mg
               0.2418044    0.1800063    0.5948072 Mg
               0.9990259    0.9019146    0.9346971 Mg
               0.2726387    0.2638104    0.0849724 Mg
               0.0298602    0.9857187    0.4248623 Mg
               0.7870818    0.7076270    0.7647521 Mg

