
1.00000000
                       1.59609453       2.76451683       0.00000000
                      -1.59609453       2.76451683       0.00000000
                       0.08291400       0.64625069      17.55205871
Mg 
6 
Direct
               0.6350219    0.6465291    0.2215133 Mg
               0.5928289    0.6196790    0.5168644 Mg
               0.5506359    0.5928289    0.8122155 Mg
               0.3227851    0.3266208    0.0738377 Mg
               0.2805920    0.2997707    0.3691889 Mg
               0.2383990    0.2729206    0.6645399 Mg

