
1.00000000
                       1.59609453       2.76451683       0.00000000
                      -1.59609453       2.76451683       0.00000000
                       0.91205402       1.57972390      16.55205871
Mg 
6 
Direct
               0.5324403    0.6666667    0.2348961 Mg
               0.3534719    0.6666667    0.5480910 Mg
               0.1745033    0.6666667    0.8612859 Mg
               0.2885912    0.3333333    0.0782987 Mg
               0.1096227    0.3333333    0.3914936 Mg
               0.9306542    0.3333333    0.7046884 Mg

