
1.00000000
                       1.59609453       2.76451683       0.00000000
                      -1.59609453       2.76451683       0.00000000
                       0.08291400       0.64625069      15.25205871
Mg 
6 
Direct
               0.6302499    0.6434924    0.2549174 Mg
               0.5816942    0.6125933    0.5948072 Mg
               0.5331385    0.5816942    0.9346971 Mg
               0.3211944    0.3256085    0.0849724 Mg
               0.2726387    0.2947095    0.4248623 Mg
               0.2240830    0.2638104    0.7647521 Mg

