
1.00000000
                       1.59609453       2.76451683       0.00000000
                      -1.59609453       2.76451683       0.00000000
                       1.22298152       2.62090557      17.05205871
Mg 
6 
Direct
               0.4712308    0.6459387    0.2280085 Mg
               0.2106497    0.6183013    0.5320199 Mg
               0.9500685    0.5906639    0.8360313 Mg
               0.2681880    0.3264240    0.0760028 Mg
               0.0076068    0.2987866    0.3800142 Mg
               0.7470257    0.2711492    0.6840256 Mg

