
1.00000000
                       1.59609453       2.76451683       0.00000000
                      -1.59609453       2.76451683       0.00000000
                       0.18655650       2.83632246      15.25205871
Mg 
6 
Direct
               0.5209996    0.5507952    0.2549174 Mg
               0.3267769    0.3962998    0.5948072 Mg
               0.1325541    0.2418044    0.9346971 Mg
               0.2847776    0.2947095    0.0849724 Mg
               0.0905548    0.1402141    0.4248623 Mg
               0.8963321    0.9857187    0.7647521 Mg

