
1.00000000
                       1.59609453       2.76451683       0.00000000
                      -1.59609453       2.76451683       0.00000000
                       0.20728500       4.38014355      16.05205871
Mg 
6 
Direct
               0.4590557    0.4905119    0.2422128 Mg
               0.1822411    0.2556389    0.5651633 Mg
               0.9054263    0.0207658    0.8881138 Mg
               0.2641297    0.2746151    0.0807376 Mg
               0.9873149    0.0397420    0.4036881 Mg
               0.7105003    0.8048689    0.7266385 Mg

