
1.00000000
                       1.59609453       2.76451683       0.00000000
                      -1.59609453       2.76451683       0.00000000
                      -0.33165601       2.94403091      15.45205871
Mg 
6 
Direct
               0.5588305    0.5065462    0.2516179 Mg
               0.4150488    0.2930523    0.5871084 Mg
               0.2712671    0.0795582    0.9225990 Mg
               0.2973879    0.2799598    0.0838726 Mg
               0.1536062    0.0664658    0.4193632 Mg
               0.0098246    0.8529718    0.7548537 Mg

