
1.00000000
                       1.59609453       2.76451683       0.00000000
                      -1.59609453       2.76451683       0.00000000
                      -0.04145700       2.44139149      17.55205871
Mg 
6 
Direct
               0.5717324    0.5659788    0.2215133 Mg
               0.4451534    0.4317284    0.5168644 Mg
               0.3185743    0.2974778    0.8122155 Mg
               0.3016886    0.2997707    0.0738377 Mg
               0.1751095    0.1655202    0.3691889 Mg
               0.0485305    0.0312697    0.6645399 Mg

