
1.00000000
                       1.59609453       2.76451683       0.00000000
                      -1.59609453       2.76451683       0.00000000
                      -0.33165601       2.94403091      16.05205871
Mg 
6 
Direct
               0.5628612    0.5125313    0.2422128 Mg
               0.4244539    0.3070174    0.5651633 Mg
               0.2860465    0.1015034    0.8881138 Mg
               0.2987315    0.2819548    0.0807376 Mg
               0.1603241    0.0764409    0.4036881 Mg
               0.0219168    0.8709270    0.7266385 Mg

