
1.00000000
                       1.59609453       2.76451683       0.00000000
                      -1.59609453       2.76451683       0.00000000
                       0.20728500       4.38014355      15.05205871
Mg 
6 
Direct
               0.4452628    0.4788089    0.2583045 Mg
               0.1500577    0.2283318    0.6027105 Mg
               0.8548525    0.9778546    0.9471166 Mg
               0.2595320    0.2707140    0.0861015 Mg
               0.9643268    0.0202369    0.4305076 Mg
               0.6691217    0.7697598    0.7749135 Mg

