
1.00000000
                       1.59609453       2.76451683       0.00000000
                      -1.59609453       2.76451683       0.00000000
                       0.24874200       1.93875206      15.25205871
Mg 
6 
Direct
               0.5574164    0.5971438    0.2549174 Mg
               0.4117493    0.5044466    0.5948072 Mg
               0.2660822    0.4117493    0.9346971 Mg
               0.2969165    0.3101590    0.0849724 Mg
               0.1512495    0.2174618    0.4248623 Mg
               0.0055824    0.1247645    0.7647521 Mg

