
1.00000000
                       1.59609453       2.76451683       0.00000000
                      -1.59609453       2.76451683       0.00000000
                       0.10364250       2.19007177      16.05205871
Mg 
6 
Direct
               0.5628612    0.5785893    0.2422128 Mg
               0.4244539    0.4611528    0.5651633 Mg
               0.2860465    0.3437162    0.8881138 Mg
               0.2987315    0.3039742    0.0807376 Mg
               0.1603241    0.1865376    0.4036881 Mg
               0.0219168    0.0691011    0.7266385 Mg

