
1.00000000
                       1.59609453       2.76451683       0.00000000
                      -1.59609453       2.76451683       0.00000000
                       0.53894101       1.43611264      15.25205871
Mg 
6 
Direct
               0.5574164    0.6434924    0.2549174 Mg
               0.4117493    0.6125933    0.5948072 Mg
               0.2660822    0.5816942    0.9346971 Mg
               0.2969165    0.3256085    0.0849724 Mg
               0.1512495    0.2947095    0.4248623 Mg
               0.0055824    0.2638104    0.7647521 Mg

