
1.00000000
                       1.59609453       2.76451683       0.00000000
                      -1.59609453       2.76451683       0.00000000
                      -0.84986852       3.05173936      15.45205871
Mg 
6 
Direct
               0.5947759    0.4607975    0.2516179 Mg
               0.4989214    0.1863053    0.5871084 Mg
               0.4030670    0.9118130    0.9225990 Mg
               0.3093697    0.2647103    0.0838726 Mg
               0.2135152    0.9902179    0.4193632 Mg
               0.1176608    0.7157257    0.7548537 Mg

