
1.00000000
                       1.59609453       2.76451683       0.00000000
                      -1.59609453       2.76451683       0.00000000
                      -0.04145700       2.44139149      15.05205871
Mg 
6 
Direct
               0.5559648    0.5492556    0.2583045 Mg
               0.4083622    0.3927074    0.6027105 Mg
               0.2607596    0.2361592    0.9471166 Mg
               0.2964327    0.2941963    0.0861015 Mg
               0.1488301    0.1376480    0.4305076 Mg
               0.0012275    0.9810999    0.7749135 Mg

