
1.00000000
                       1.59609453       2.76451683       0.00000000
                      -1.59609453       2.76451683       0.00000000
                       0.64258351       3.62618441      15.45205871
Mg 
6 
Direct
               0.4509942    0.5522949    0.2516179 Mg
               0.1634309    0.3997992    0.5871084 Mg
               0.8758675    0.2473035    0.9225990 Mg
               0.2614425    0.2952094    0.0838726 Mg
               0.9738791    0.1427137    0.4193632 Mg
               0.6863158    0.9902180    0.7548537 Mg

