
1.00000000
                       1.59609453       2.76451683       0.00000000
                      -1.59609453       2.76451683       0.00000000
                       0.18655650       2.83632246      17.05205871
Mg 
6 
Direct
               0.5363761    0.5630265    0.2280085 Mg
               0.3626554    0.4248395    0.5320199 Mg
               0.1889345    0.2866525    0.8360313 Mg
               0.2899031    0.2987866    0.0760028 Mg
               0.1161823    0.1605996    0.3800142 Mg
               0.9424616    0.0224126    0.6840256 Mg

