
1.00000000
                       1.59609453       2.76451683       0.00000000
                      -1.59609453       2.76451683       0.00000000
                      -0.49748401       1.65152953      15.25205871
Mg 
6 
Direct
               0.6302499    0.5507952    0.2549174 Mg
               0.5816942    0.3962998    0.5948072 Mg
               0.5331385    0.2418044    0.9346971 Mg
               0.3211944    0.2947095    0.0849724 Mg
               0.2726387    0.1402141    0.4248623 Mg
               0.2240830    0.9857187    0.7647521 Mg

