
1.00000000
                       1.59609453       2.76451683       0.00000000
                      -1.59609453       2.76451683       0.00000000
                      -1.16079602       2.01055769      15.05205871
Mg 
6 
Direct
               0.6666667    0.4788089    0.2583045 Mg
               0.6666667    0.2283318    0.6027105 Mg
               0.6666667    0.9778546    0.9471166 Mg
               0.3333333    0.2707140    0.0861015 Mg
               0.3333333    0.0202369    0.4305076 Mg
               0.3333333    0.7697598    0.7749135 Mg

