
1.00000000
                       1.59609453       2.76451683       0.00000000
                      -1.59609453       2.76451683       0.00000000
                      -0.35238451       1.40020982      15.05205871
Mg 
6 
Direct
               0.6297661    0.5727378    0.2583045 Mg
               0.5805652    0.4474992    0.6027105 Mg
               0.5313643    0.3222607    0.9471166 Mg
               0.3210331    0.3020237    0.0861015 Mg
               0.2718322    0.1767851    0.4305076 Mg
               0.2226314    0.0515466    0.7749135 Mg

