
1.00000000
                       1.59609453       2.76451683       0.00000000
                      -1.59609453       2.76451683       0.00000000
                      -0.55966951       2.54909993      15.45205871
Mg 
6 
Direct
               0.5947759    0.5065462    0.2516179 Mg
               0.4989214    0.2930523    0.5871084 Mg
               0.4030670    0.0795582    0.9225990 Mg
               0.3093697    0.2799598    0.0838726 Mg
               0.2135152    0.0664658    0.4193632 Mg
               0.1176608    0.8529718    0.7548537 Mg

