
1.00000000
                       1.59609453       2.76451683       0.00000000
                      -1.59609453       2.76451683       0.00000000
                      -0.53894101       4.09292102      16.55205871
Mg 
6 
Direct
               0.5324403    0.4531248    0.2348961 Mg
               0.3534719    0.1684022    0.5480910 Mg
               0.1745033    0.8836795    0.8612859 Mg
               0.2885912    0.2621527    0.0782987 Mg
               0.1096227    0.9774300    0.3914936 Mg
               0.9306542    0.6927075    0.7046884 Mg

