
1.00000000
                       1.59609453       2.76451683       0.00000000
                      -1.59609453       2.76451683       0.00000000
                      -0.12437100       1.79514080      16.25205871
Mg 
6 
Direct
               0.5983147    0.5796732    0.2392321 Mg
               0.5071786    0.4636819    0.5582083 Mg
               0.4160426    0.3476905    0.8771845 Mg
               0.3105493    0.3043355    0.0797440 Mg
               0.2194132    0.1883441    0.3987203 Mg
               0.1282772    0.0723528    0.7176964 Mg

