
1.00000000
                       1.59609453       2.76451683       0.00000000
                      -1.59609453       2.76451683       0.00000000
                      -0.78768301       2.15416896      15.65205871
Mg 
6 
Direct
               0.6311806    0.5085922    0.2484028 Mg
               0.5838658    0.2978263    0.5796064 Mg
               0.5365510    0.0870602    0.9108102 Mg
               0.3215046    0.2806418    0.0828009 Mg
               0.2741898    0.0698758    0.4140046 Mg
               0.2268750    0.8591098    0.7452083 Mg

