
1.00000000
                       1.59609453       2.76451683       0.00000000
                      -1.59609453       2.76451683       0.00000000
                       0.70476901       2.72861401      15.45205871
Mg 
6 
Direct
               0.4869396    0.5980436    0.2516179 Mg
               0.2473035    0.5065462    0.5871084 Mg
               0.0076674    0.4150488    0.9225990 Mg
               0.2734243    0.3104590    0.0838726 Mg
               0.0337881    0.2189615    0.4193632 Mg
               0.7941521    0.1274641    0.7548537 Mg

