
1.00000000
                       1.59609453       2.76451683       0.00000000
                      -1.59609453       2.76451683       0.00000000
                      -0.24874200       3.59028160      16.55205871
Mg 
6 
Direct
               0.5324403    0.4958331    0.2348961 Mg
               0.3534719    0.2680551    0.5480910 Mg
               0.1745033    0.0402770    0.8612859 Mg
               0.2885912    0.2763888    0.0782987 Mg
               0.1096227    0.0486107    0.3914936 Mg
               0.9306542    0.8208326    0.7046884 Mg

