
1.00000000
                       1.59609453       2.76451683       0.00000000
                      -1.59609453       2.76451683       0.00000000
                       1.22298152       2.62090557      16.05205871
Mg 
6 
Direct
               0.4590557    0.6446474    0.2422128 Mg
               0.1822411    0.6152882    0.5651633 Mg
               0.9054263    0.5859291    0.8881138 Mg
               0.2641297    0.3259935    0.0807376 Mg
               0.9873149    0.2966344    0.4036881 Mg
               0.7105003    0.2672753    0.7266385 Mg

