
1.00000000
                       1.59609453       2.76451683       0.00000000
                      -1.59609453       2.76451683       0.00000000
                       0.24874200       1.93875206      17.55205871
Mg 
6 
Direct
               0.5717324    0.6062540    0.2215133 Mg
               0.4451534    0.5257037    0.5168644 Mg
               0.3185743    0.4451534    0.8122155 Mg
               0.3016886    0.3131957    0.0738377 Mg
               0.1751095    0.2326454    0.3691889 Mg
               0.0485305    0.1520951    0.6645399 Mg

