
1.00000000
                       1.59609453       2.76451683       0.00000000
                      -1.59609453       2.76451683       0.00000000
                       0.93278252       3.12354499      16.05205871
Mg 
6 
Direct
               0.4590557    0.6006087    0.2422128 Mg
               0.1822411    0.5125313    0.5651633 Mg
               0.9054263    0.4244539    0.8881138 Mg
               0.2641297    0.3113140    0.0807376 Mg
               0.9873149    0.2232365    0.4036881 Mg
               0.7105003    0.1351592    0.7266385 Mg

