
1.00000000
                       1.59609453       2.76451683       0.00000000
                      -1.59609453       2.76451683       0.00000000
                      -0.76695451       3.69799005      15.55205871
Mg 
6 
Direct
               0.5595238    0.4393940    0.2500000 Mg
               0.4166667    0.1363637    0.5833333 Mg
               0.2738095    0.8333333    0.9166667 Mg
               0.2976190    0.2575758    0.0833333 Mg
               0.1547619    0.9545454    0.4166667 Mg
               0.0119047    0.6515151    0.7500000 Mg

