
1.00000000
                       1.59609453       2.76451683       0.00000000
                      -1.59609453       2.76451683       0.00000000
                       0.41457001       3.23125344      15.55205871
Mg 
6 
Direct
               0.4880953    0.5530303    0.2500000 Mg
               0.2500001    0.4015152    0.5833333 Mg
               0.0119048    0.2500000    0.9166667 Mg
               0.2738095    0.2954545    0.0833333 Mg
               0.0357142    0.1439393    0.4166667 Mg
               0.7976190    0.9924242    0.7500000 Mg

