
1.00000000
                       1.59609453       2.76451683       0.00000000
                      -1.59609453       2.76451683       0.00000000
                       0.62185501       2.08236333      15.25205871
Mg 
6 
Direct
               0.5209996    0.6203181    0.2549174 Mg
               0.3267769    0.5585199    0.5948072 Mg
               0.1325541    0.4967218    0.9346971 Mg
               0.2847776    0.3178838    0.0849724 Mg
               0.0905548    0.2560856    0.4248623 Mg
               0.8963321    0.1942875    0.7647521 Mg

