
1.00000000
                       1.59609453       2.76451683       0.00000000
                      -1.59609453       2.76451683       0.00000000
                      -0.33165601       2.94403091      15.85205871
Mg 
6 
Direct
               0.5615515    0.5105866    0.2452688 Mg
               0.4213980    0.3024798    0.5722937 Mg
               0.2812444    0.0943729    0.8993188 Mg
               0.2982949    0.2813066    0.0817562 Mg
               0.1581413    0.0731998    0.4087813 Mg
               0.0179878    0.8650930    0.7358063 Mg

