
1.00000000
                       1.59609453       2.76451683       0.00000000
                      -1.59609453       2.76451683       0.00000000
                       0.78768301       3.37486470      15.65205871
Mg 
6 
Direct
               0.4537500    0.5763384    0.2484028 Mg
               0.1698612    0.4559007    0.5796064 Mg
               0.8859723    0.3354630    0.9108102 Mg
               0.2623611    0.3032239    0.0828009 Mg
               0.9784722    0.1827862    0.4140046 Mg
               0.6945833    0.0623485    0.7452083 Mg

