
1.00000000
                       1.59609453       2.76451683       0.00000000
                      -1.59609453       2.76451683       0.00000000
                       0.78768301       3.37486470      16.05205871
Mg 
6 
Direct
               0.4590557    0.5785893    0.2422128 Mg
               0.1822411    0.4611528    0.5651633 Mg
               0.9054263    0.3437162    0.8881138 Mg
               0.2641297    0.3039742    0.0807376 Mg
               0.9873149    0.1865376    0.4036881 Mg
               0.7105003    0.0691011    0.7266385 Mg

