
1.00000000
                       1.59609453       2.76451683       0.00000000
                      -1.59609453       2.76451683       0.00000000
                       0.31092751       1.04118166      17.55205871
Mg 
6 
Direct
               0.6033772    0.6465291    0.2215133 Mg
               0.5189912    0.6196790    0.5168644 Mg
               0.4346051    0.5928289    0.8122155 Mg
               0.3122368    0.3266208    0.0738377 Mg
               0.2278508    0.2997707    0.3691889 Mg
               0.1434647    0.2729206    0.6645399 Mg

