
1.00000000
                       1.59609453       2.76451683       0.00000000
                      -1.59609453       2.76451683       0.00000000
                      -0.49748401       1.65152953      17.55205871
Mg 
6 
Direct
               0.6350219    0.5659788    0.2215133 Mg
               0.5928289    0.4317284    0.5168644 Mg
               0.5506359    0.2974778    0.8122155 Mg
               0.3227851    0.2997707    0.0738377 Mg
               0.2805920    0.1655202    0.3691889 Mg
               0.2383990    0.0312697    0.6645399 Mg

