
1.00000000
                       1.59609453       2.76451683       0.00000000
                      -1.59609453       2.76451683       0.00000000
                      -0.49748401       1.65152953      16.55205871
Mg 
6 
Direct
               0.6331101    0.5598957    0.2348961 Mg
               0.5883680    0.4175344    0.5480910 Mg
               0.5436259    0.2751731    0.8612859 Mg
               0.3221478    0.2977430    0.0782987 Mg
               0.2774056    0.1553817    0.3914936 Mg
               0.2326635    0.0130204    0.7046884 Mg

