
1.00000000
                       1.59609453       2.76451683       0.00000000
                      -1.59609453       2.76451683       0.00000000
                      -0.06218550       0.89757040      16.55205871
Mg 
6 
Direct
               0.6331101    0.6239583    0.2348961 Mg
               0.5883680    0.5670138    0.5480910 Mg
               0.5436259    0.5100693    0.8612859 Mg
               0.3221478    0.3190972    0.0782987 Mg
               0.2774056    0.2621526    0.3914936 Mg
               0.2326635    0.2052081    0.7046884 Mg

