
1.00000000
                       1.59609453       2.76451683       0.00000000
                      -1.59609453       2.76451683       0.00000000
                      -0.24874200       3.59028160      15.65205871
Mg 
6 
Direct
               0.5247223    0.4860101    0.2484028 Mg
               0.3354630    0.2451348    0.5796064 Mg
               0.1462037    0.0042593    0.9108102 Mg
               0.2860185    0.2731145    0.0828009 Mg
               0.0967592    0.0322390    0.4140046 Mg
               0.9075000    0.7913636    0.7452083 Mg

