
1.00000000
                       1.59609453       2.76451683       0.00000000
                      -1.59609453       2.76451683       0.00000000
                       1.07788202       2.87222528      15.45205871
Mg 
6 
Direct
               0.4509942    0.6209180    0.2516179 Mg
               0.1634309    0.5599197    0.5871084 Mg
               0.8758675    0.4989214    0.9225990 Mg
               0.2614425    0.3180837    0.0838726 Mg
               0.9738791    0.2570854    0.4193632 Mg
               0.6863158    0.1960872    0.7548537 Mg

