
1.00000000
                       1.59609453       2.76451683       0.00000000
                      -1.59609453       2.76451683       0.00000000
                      -0.31092751       4.48785200      16.25205871
Mg 
6 
Direct
               0.4957866    0.4491829    0.2392321 Mg
               0.2679465    0.1592046    0.5582083 Mg
               0.0401063    0.8692262    0.8771845 Mg
               0.2763733    0.2608387    0.0797440 Mg
               0.0485331    0.9708603    0.3987203 Mg
               0.8206930    0.6808820    0.7176964 Mg

