
1.00000000
                       1.59609453       2.76451683       0.00000000
                      -1.59609453       2.76451683       0.00000000
                       0.06218550       4.63146326      15.05205871
Mg 
6 
Direct
               0.4452628    0.4553266    0.2583045 Mg
               0.1500577    0.1735399    0.6027105 Mg
               0.8548525    0.8917531    0.9471166 Mg
               0.2595320    0.2628866    0.0861015 Mg
               0.9643268    0.9810998    0.4305076 Mg
               0.6691217    0.6993131    0.7749135 Mg

