
1.00000000
                       1.59609453       2.76451683       0.00000000
                      -1.59609453       2.76451683       0.00000000
                       0.76695451       1.83104361      15.05205871
Mg 
6 
Direct
               0.5190641    0.6431845    0.2583045 Mg
               0.3222607    0.6118748    0.6027105 Mg
               0.1254572    0.5805652    0.9471166 Mg
               0.2841325    0.3255059    0.0861015 Mg
               0.0873290    0.2941962    0.4305076 Mg
               0.8905256    0.2628866    0.7749135 Mg

