
1.00000000
                       1.59609453       2.76451683       0.00000000
                      -1.59609453       2.76451683       0.00000000
                      -0.70476901       2.80041965      16.05205871
Mg 
6 
Direct
               0.5974630    0.4905119    0.2422128 Mg
               0.5051915    0.2556389    0.5651633 Mg
               0.4129199    0.0207658    0.8881138 Mg
               0.3102654    0.2746151    0.0807376 Mg
               0.2179938    0.0397420    0.4036881 Mg
               0.1257223    0.8048689    0.7266385 Mg

