
1.00000000
                       3.19219000       0.00000000       0.00000000
                       1.59609500       2.76451763       0.00000000
                       1.06406333       0.92150588      15.63847332
Mg 
6 
Direct
               0.6250000    0.5833334    0.2500000 Mg
               0.5694445    0.4722223    0.5833333 Mg
               0.5138889    0.3611111    0.9166667 Mg
               0.3194444    0.3055555    0.0833333 Mg
               0.2638889    0.1944444    0.4166667 Mg
               0.2083333    0.0833333    0.7500000 Mg

