
1.00000000
                       1.59609453       2.76451683       0.00000000
                      -1.59609453       2.76451683       0.00000000
                       0.10364250       2.19007177      15.85205871
Mg 
6 
Direct
               0.5615515    0.5774781    0.2452688 Mg
               0.4213980    0.4585599    0.5722937 Mg
               0.2812444    0.3396417    0.8993188 Mg
               0.2982949    0.3036038    0.0817562 Mg
               0.1581413    0.1846856    0.4087813 Mg
               0.0179878    0.0657674    0.7358063 Mg

