
1.00000000
                       1.59609453       2.76451683       0.00000000
                      -1.59609453       2.76451683       0.00000000
                      -1.22298152       2.90812809      16.55205871
Mg 
6 
Direct
               0.6331101    0.4531248    0.2348961 Mg
               0.5883680    0.1684022    0.5480910 Mg
               0.5436259    0.8836795    0.8612859 Mg
               0.3221478    0.2621527    0.0782987 Mg
               0.2774056    0.9774300    0.3914936 Mg
               0.2326635    0.6927075    0.7046884 Mg

