
1.00000000
                       1.59609453       2.76451683       0.00000000
                      -1.59609453       2.76451683       0.00000000
                      -0.10364250       3.33896189      16.05205871
Mg 
6 
Direct
               0.5282594    0.5125313    0.2422128 Mg
               0.3437163    0.3070174    0.5651633 Mg
               0.1591731    0.1015034    0.8881138 Mg
               0.2871975    0.2819548    0.0807376 Mg
               0.1026544    0.0764409    0.4036881 Mg
               0.9181113    0.8709270    0.7266385 Mg

