
1.00000000
                       1.59609453       2.76451683       0.00000000
                      -1.59609453       2.76451683       0.00000000
                      -0.39384151       3.84160131      17.55205871
Mg 
6 
Direct
               0.5400877    0.4854285    0.2215133 Mg
               0.3713156    0.2437777    0.5168644 Mg
               0.2025436    0.0021267    0.8122155 Mg
               0.2911403    0.2729206    0.0738377 Mg
               0.1223682    0.0312697    0.3691889 Mg
               0.9535962    0.7896188    0.6645399 Mg

