
1.00000000
                       1.59609453       2.76451683       0.00000000
                      -1.59609453       2.76451683       0.00000000
                       0.93278252       3.12354499      15.65205871
Mg 
6 
Direct
               0.4537500    0.5989205    0.2484028 Mg
               0.1698612    0.5085922    0.5796064 Mg
               0.8859723    0.4182639    0.9108102 Mg
               0.2623611    0.3107512    0.0828009 Mg
               0.9784722    0.2204229    0.4140046 Mg
               0.6945833    0.1300947    0.7452083 Mg

