
1.00000000
                       1.59609453       2.76451683       0.00000000
                      -1.59609453       2.76451683       0.00000000
                      -0.62185501       3.44667033      15.25205871
Mg 
6 
Direct
               0.5574164    0.4580979    0.2549174 Mg
               0.4117493    0.1800063    0.5948072 Mg
               0.2660822    0.9019146    0.9346971 Mg
               0.2969165    0.2638104    0.0849724 Mg
               0.1512495    0.9857187    0.4248623 Mg
               0.0055824    0.7076270    0.7647521 Mg

