
1.00000000
                       1.59609453       2.76451683       0.00000000
                      -1.59609453       2.76451683       0.00000000
                       0.99496802       2.22597459      15.25205871
Mg 
6 
Direct
               0.4845829    0.6434924    0.2549174 Mg
               0.2418044    0.6125933    0.5948072 Mg
               0.9990259    0.5816942    0.9346971 Mg
               0.2726387    0.3256085    0.0849724 Mg
               0.0298602    0.2947095    0.4248623 Mg
               0.7870818    0.2638104    0.7647521 Mg

