
1.00000000
                       1.59609453       2.76451683       0.00000000
                      -1.59609453       2.76451683       0.00000000
                       0.41457001       3.23125344      16.25205871
Mg 
6 
Direct
               0.4957866    0.5579248    0.2392321 Mg
               0.2679465    0.4129357    0.5582083 Mg
               0.0401063    0.2679465    0.8771845 Mg
               0.2763733    0.2970860    0.0797440 Mg
               0.0485331    0.1520968    0.3987203 Mg
               0.8206930    0.0071077    0.7176964 Mg

