
1.00000000
                       1.59609453       2.76451683       0.00000000
                      -1.59609453       2.76451683       0.00000000
                       0.18655650       2.83632246      15.05205871
Mg 
6 
Direct
               0.5190641    0.5492556    0.2583045 Mg
               0.3222607    0.3927074    0.6027105 Mg
               0.1254572    0.2361592    0.9471166 Mg
               0.2841325    0.2941963    0.0861015 Mg
               0.0873290    0.1376480    0.4305076 Mg
               0.8905256    0.9810999    0.7749135 Mg

